c FILE: i160-144

c SOURCE: From steinlib

c DESCRIPTION: Steinlib instance with 160 nodes and 2544 edges.

p edge 160 2544
e 1 13
e 1 22
e 1 33
e 1 44
e 1 48
e 1 49
e 1 50
e 1 53
e 1 64
e 1 71
e 1 85
e 1 86
e 1 89
e 1 96
e 1 105
e 1 109
e 1 117
e 1 118
e 1 126
e 1 127
e 1 128
e 1 142
e 2 7
e 2 21
e 2 22
e 2 25
e 2 27
e 2 34
e 2 39
e 2 41
e 2 43
e 2 44
e 2 48
e 2 53
e 2 56
e 2 57
e 2 58
e 2 81
e 2 90
e 2 96
e 2 102
e 2 112
e 2 116
e 2 125
e 2 128
e 2 130
e 2 146
e 2 156
e 2 157
e 2 159
e 2 160
e 3 9
e 3 28
e 3 32
e 3 33
e 3 37
e 3 38
e 3 39
e 3 52
e 3 66
e 3 73
e 3 74
e 3 87
e 3 90
e 3 91
e 3 93
e 3 110
e 3 111
e 3 116
e 3 122
e 3 124
e 3 128
e 3 130
e 3 139
e 3 144
e 3 149
e 3 150
e 3 152
e 4 14
e 4 15
e 4 19
e 4 22
e 4 24
e 4 34
e 4 41
e 4 42
e 4 43
e 4 45
e 4 48
e 4 50
e 4 59
e 4 62
e 4 70
e 4 81
e 4 85
e 4 86
e 4 92
e 4 101
e 4 105
e 4 107
e 4 111
e 4 113
e 4 114
e 4 126
e 4 128
e 4 133
e 4 139
e 4 140
e 4 144
e 4 146
e 4 155
e 4 159
e 5 26
e 5 36
e 5 49
e 5 60
e 5 78
e 5 79
e 5 80
e 5 81
e 5 82
e 5 87
e 5 96
e 5 97
e 5 101
e 5 102
e 5 103
e 5 105
e 5 112
e 5 117
e 5 118
e 5 127
e 5 132
e 5 134
e 5 135
e 5 146
e 5 152
e 5 155
e 5 156
e 5 160
e 6 10
e 6 14
e 6 16
e 6 17
e 6 24
e 6 25
e 6 28
e 6 29
e 6 40
e 6 45
e 6 49
e 6 65
e 6 67
e 6 76
e 6 95
e 6 98
e 6 102
e 6 103
e 6 105
e 6 107
e 6 116
e 6 124
e 6 141
e 6 145
e 6 149
e 6 150
e 6 156
e 6 160
e 7 10
e 7 13
e 7 31
e 7 32
e 7 34
e 7 35
e 7 40
e 7 41
e 7 42
e 7 43
e 7 45
e 7 49
e 7 50
e 7 53
e 7 68
e 7 75
e 7 76
e 7 80
e 7 81
e 7 90
e 7 115
e 7 119
e 7 122
e 7 139
e 7 142
e 7 145
e 7 150
e 8 11
e 8 19
e 8 20
e 8 21
e 8 24
e 8 31
e 8 33
e 8 34
e 8 35
e 8 39
e 8 52
e 8 57
e 8 59
e 8 68
e 8 69
e 8 78
e 8 80
e 8 85
e 8 88
e 8 95
e 8 99
e 8 100
e 8 108
e 8 113
e 8 115
e 8 117
e 8 118
e 8 120
e 8 128
e 8 130
e 8 134
e 8 136
e 8 140
e 8 143
e 8 152
e 9 12
e 9 13
e 9 16
e 9 31
e 9 33
e 9 40
e 9 41
e 9 45
e 9 60
e 9 63
e 9 85
e 9 88
e 9 92
e 9 105
e 9 107
e 9 113
e 9 115
e 9 132
e 9 133
e 9 134
e 9 140
e 9 144
e 9 145
e 9 148
e 9 153
e 10 17
e 10 18
e 10 23
e 10 25
e 10 27
e 10 36
e 10 44
e 10 47
e 10 50
e 10 51
e 10 57
e 10 59
e 10 60
e 10 66
e 10 72
e 10 95
e 10 100
e 10 109
e 10 119
e 10 121
e 10 125
e 10 127
e 10 131
e 10 135
e 10 149
e 10 150
e 11 12
e 11 20
e 11 24
e 11 25
e 11 49
e 11 54
e 11 70
e 11 74
e 11 78
e 11 85
e 11 91
e 11 93
e 11 96
e 11 104
e 11 107
e 11 115
e 11 117
e 11 118
e 11 131
e 11 134
e 11 135
e 11 140
e 11 144
e 11 147
e 11 151
e 11 153
e 11 154
e 11 155
e 12 26
e 12 29
e 12 33
e 12 35
e 12 37
e 12 42
e 12 44
e 12 46
e 12 48
e 12 62
e 12 63
e 12 64
e 12 67
e 12 69
e 12 70
e 12 80
e 12 96
e 12 103
e 12 105
e 12 107
e 12 110
e 12 112
e 12 117
e 12 122
e 12 124
e 12 126
e 12 127
e 12 131
e 12 144
e 12 159
e 13 19
e 13 21
e 13 34
e 13 37
e 13 38
e 13 39
e 13 40
e 13 41
e 13 51
e 13 58
e 13 62
e 13 63
e 13 72
e 13 75
e 13 91
e 13 94
e 13 98
e 13 102
e 13 104
e 13 113
e 13 116
e 13 119
e 13 120
e 13 125
e 13 126
e 13 129
e 13 132
e 13 133
e 13 135
e 13 137
e 13 139
e 13 142
e 13 145
e 13 147
e 13 148
e 13 155
e 13 157
e 14 16
e 14 18
e 14 24
e 14 25
e 14 31
e 14 36
e 14 41
e 14 50
e 14 54
e 14 59
e 14 65
e 14 93
e 14 103
e 14 104
e 14 109
e 14 110
e 14 112
e 14 114
e 14 120
e 14 121
e 14 125
e 14 134
e 14 135
e 14 138
e 14 141
e 14 159
e 15 19
e 15 23
e 15 45
e 15 46
e 15 47
e 15 55
e 15 56
e 15 59
e 15 60
e 15 64
e 15 65
e 15 70
e 15 71
e 15 76
e 15 81
e 15 83
e 15 85
e 15 93
e 15 103
e 15 107
e 15 108
e 15 112
e 15 116
e 15 118
e 15 122
e 15 127
e 15 129
e 15 130
e 15 132
e 15 137
e 15 138
e 15 141
e 15 149
e 15 150
e 15 152
e 15 153
e 16 17
e 16 23
e 16 24
e 16 29
e 16 39
e 16 40
e 16 41
e 16 46
e 16 51
e 16 57
e 16 59
e 16 60
e 16 62
e 16 71
e 16 72
e 16 90
e 16 93
e 16 98
e 16 101
e 16 103
e 16 111
e 16 112
e 16 115
e 16 119
e 16 121
e 16 126
e 16 142
e 16 143
e 16 149
e 16 150
e 16 153
e 16 156
e 17 20
e 17 23
e 17 33
e 17 37
e 17 38
e 17 39
e 17 45
e 17 48
e 17 50
e 17 52
e 17 55
e 17 64
e 17 68
e 17 76
e 17 81
e 17 83
e 17 100
e 17 106
e 17 109
e 17 110
e 17 120
e 17 121
e 17 129
e 17 130
e 17 132
e 17 136
e 17 143
e 17 149
e 17 151
e 17 152
e 18 28
e 18 32
e 18 38
e 18 39
e 18 40
e 18 46
e 18 50
e 18 54
e 18 58
e 18 59
e 18 65
e 18 69
e 18 77
e 18 87
e 18 92
e 18 100
e 18 107
e 18 110
e 18 113
e 18 123
e 18 127
e 18 129
e 18 131
e 18 140
e 18 141
e 18 144
e 18 145
e 18 147
e 18 149
e 18 153
e 19 20
e 19 23
e 19 36
e 19 40
e 19 41
e 19 44
e 19 47
e 19 50
e 19 51
e 19 55
e 19 63
e 19 68
e 19 69
e 19 74
e 19 75
e 19 82
e 19 85
e 19 86
e 19 90
e 19 93
e 19 94
e 19 95
e 19 97
e 19 103
e 19 104
e 19 113
e 19 116
e 19 123
e 19 126
e 19 129
e 19 143
e 19 152
e 19 159
e 20 24
e 20 35
e 20 46
e 20 50
e 20 70
e 20 73
e 20 81
e 20 96
e 20 102
e 20 104
e 20 105
e 20 116
e 20 119
e 20 123
e 20 128
e 20 131
e 20 132
e 20 133
e 20 135
e 20 145
e 20 150
e 20 159
e 21 28
e 21 30
e 21 45
e 21 47
e 21 52
e 21 56
e 21 59
e 21 66
e 21 75
e 21 77
e 21 84
e 21 88
e 21 91
e 21 92
e 21 93
e 21 97
e 21 100
e 21 107
e 21 108
e 21 111
e 21 119
e 21 122
e 21 124
e 21 144
e 21 149
e 21 154
e 21 157
e 22 23
e 22 30
e 22 36
e 22 37
e 22 41
e 22 58
e 22 62
e 22 69
e 22 70
e 22 81
e 22 91
e 22 92
e 22 103
e 22 108
e 22 118
e 22 121
e 22 126
e 22 134
e 22 138
e 22 141
e 22 143
e 22 144
e 22 148
e 22 149
e 22 158
e 22 160
e 23 37
e 23 38
e 23 40
e 23 48
e 23 50
e 23 52
e 23 55
e 23 58
e 23 65
e 23 66
e 23 67
e 23 71
e 23 76
e 23 77
e 23 78
e 23 80
e 23 82
e 23 94
e 23 97
e 23 111
e 23 119
e 23 120
e 23 127
e 23 135
e 23 144
e 23 160
e 24 26
e 24 29
e 24 31
e 24 33
e 24 39
e 24 44
e 24 52
e 24 56
e 24 62
e 24 75
e 24 87
e 24 89
e 24 91
e 24 102
e 24 106
e 24 112
e 24 118
e 24 124
e 24 126
e 24 129
e 24 131
e 24 145
e 24 149
e 24 153
e 24 156
e 25 37
e 25 41
e 25 47
e 25 49
e 25 50
e 25 56
e 25 60
e 25 71
e 25 72
e 25 77
e 25 103
e 25 106
e 25 110
e 25 111
e 25 119
e 25 120
e 25 131
e 25 142
e 25 145
e 25 150
e 25 153
e 25 155
e 26 27
e 26 32
e 26 34
e 26 37
e 26 39
e 26 43
e 26 56
e 26 57
e 26 77
e 26 82
e 26 86
e 26 87
e 26 88
e 26 91
e 26 95
e 26 96
e 26 97
e 26 104
e 26 117
e 26 120
e 26 122
e 26 132
e 26 133
e 26 140
e 26 143
e 26 147
e 26 156
e 27 34
e 27 38
e 27 44
e 27 45
e 27 57
e 27 71
e 27 77
e 27 78
e 27 80
e 27 81
e 27 82
e 27 85
e 27 87
e 27 90
e 27 95
e 27 96
e 27 103
e 27 106
e 27 110
e 27 114
e 27 115
e 27 128
e 27 146
e 27 148
e 27 151
e 27 152
e 27 153
e 27 155
e 27 160
e 28 29
e 28 32
e 28 33
e 28 36
e 28 37
e 28 41
e 28 48
e 28 51
e 28 55
e 28 62
e 28 64
e 28 71
e 28 76
e 28 78
e 28 81
e 28 84
e 28 87
e 28 93
e 28 102
e 28 109
e 28 110
e 28 111
e 28 114
e 28 134
e 28 144
e 28 147
e 28 153
e 28 154
e 28 156
e 29 36
e 29 38
e 29 42
e 29 49
e 29 55
e 29 57
e 29 66
e 29 68
e 29 70
e 29 76
e 29 77
e 29 79
e 29 84
e 29 90
e 29 92
e 29 98
e 29 103
e 29 105
e 29 107
e 29 109
e 29 114
e 29 115
e 29 125
e 29 127
e 29 130
e 29 132
e 29 135
e 29 138
e 29 148
e 29 149
e 29 151
e 29 152
e 29 153
e 29 156
e 29 159
e 30 36
e 30 42
e 30 45
e 30 55
e 30 58
e 30 60
e 30 61
e 30 62
e 30 66
e 30 70
e 30 71
e 30 88
e 30 91
e 30 93
e 30 96
e 30 97
e 30 98
e 30 116
e 30 125
e 30 129
e 30 131
e 30 135
e 30 136
e 30 139
e 30 146
e 30 149
e 30 152
e 30 160
e 31 39
e 31 41
e 31 43
e 31 46
e 31 47
e 31 49
e 31 54
e 31 59
e 31 66
e 31 69
e 31 74
e 31 77
e 31 80
e 31 83
e 31 84
e 31 85
e 31 86
e 31 89
e 31 91
e 31 92
e 31 99
e 31 104
e 31 106
e 31 110
e 31 116
e 31 118
e 31 119
e 31 129
e 31 130
e 31 135
e 31 137
e 31 142
e 31 144
e 31 149
e 31 150
e 31 154
e 31 155
e 31 159
e 32 33
e 32 42
e 32 46
e 32 50
e 32 52
e 32 55
e 32 60
e 32 62
e 32 74
e 32 87
e 32 89
e 32 92
e 32 93
e 32 102
e 32 103
e 32 128
e 32 131
e 32 137
e 32 147
e 32 149
e 32 153
e 33 39
e 33 40
e 33 41
e 33 51
e 33 59
e 33 61
e 33 62
e 33 63
e 33 69
e 33 71
e 33 74
e 33 75
e 33 80
e 33 85
e 33 87
e 33 91
e 33 93
e 33 98
e 33 103
e 33 109
e 33 110
e 33 114
e 33 115
e 33 118
e 33 126
e 33 128
e 33 130
e 33 131
e 33 148
e 33 150
e 33 151
e 33 154
e 33 156
e 33 157
e 33 158
e 34 42
e 34 49
e 34 54
e 34 57
e 34 59
e 34 62
e 34 63
e 34 66
e 34 74
e 34 78
e 34 79
e 34 88
e 34 101
e 34 114
e 34 132
e 34 135
e 34 136
e 34 139
e 34 140
e 34 141
e 34 144
e 34 152
e 34 155
e 34 157
e 34 160
e 35 42
e 35 46
e 35 51
e 35 53
e 35 54
e 35 58
e 35 62
e 35 63
e 35 65
e 35 72
e 35 81
e 35 82
e 35 84
e 35 85
e 35 89
e 35 90
e 35 94
e 35 99
e 35 102
e 35 104
e 35 106
e 35 111
e 35 112
e 35 114
e 35 119
e 35 121
e 35 122
e 35 123
e 35 124
e 35 131
e 35 132
e 35 134
e 35 137
e 35 144
e 35 151
e 35 152
e 35 156
e 35 157
e 36 37
e 36 38
e 36 43
e 36 55
e 36 56
e 36 57
e 36 61
e 36 68
e 36 71
e 36 82
e 36 86
e 36 88
e 36 92
e 36 99
e 36 106
e 36 108
e 36 113
e 36 118
e 36 121
e 36 124
e 36 125
e 36 128
e 36 141
e 36 146
e 36 147
e 36 150
e 36 154
e 36 158
e 37 39
e 37 59
e 37 64
e 37 65
e 37 67
e 37 75
e 37 77
e 37 90
e 37 104
e 37 107
e 37 111
e 37 114
e 37 116
e 37 121
e 37 129
e 37 134
e 37 140
e 37 147
e 37 149
e 37 150
e 37 153
e 38 40
e 38 43
e 38 56
e 38 63
e 38 65
e 38 70
e 38 80
e 38 81
e 38 85
e 38 87
e 38 89
e 38 94
e 38 110
e 38 114
e 38 115
e 38 117
e 38 118
e 38 123
e 38 131
e 38 135
e 38 140
e 38 146
e 38 155
e 38 157
e 38 158
e 38 160
e 39 45
e 39 46
e 39 49
e 39 51
e 39 56
e 39 62
e 39 67
e 39 71
e 39 72
e 39 80
e 39 83
e 39 92
e 39 99
e 39 101
e 39 104
e 39 110
e 39 117
e 39 123
e 39 127
e 39 133
e 39 138
e 39 140
e 39 147
e 40 53
e 40 54
e 40 55
e 40 61
e 40 66
e 40 68
e 40 72
e 40 73
e 40 75
e 40 77
e 40 79
e 40 81
e 40 83
e 40 96
e 40 99
e 40 100
e 40 114
e 40 115
e 40 129
e 40 132
e 40 140
e 40 141
e 40 151
e 40 155
e 41 43
e 41 45
e 41 48
e 41 49
e 41 50
e 41 51
e 41 60
e 41 67
e 41 68
e 41 84
e 41 95
e 41 102
e 41 106
e 41 111
e 41 112
e 41 113
e 41 119
e 41 120
e 41 121
e 41 123
e 41 129
e 41 143
e 41 156
e 41 159
e 42 45
e 42 47
e 42 53
e 42 59
e 42 60
e 42 62
e 42 65
e 42 84
e 42 86
e 42 92
e 42 96
e 42 101
e 42 102
e 42 104
e 42 113
e 42 115
e 42 117
e 42 118
e 42 119
e 42 140
e 42 147
e 42 155
e 42 156
e 43 45
e 43 47
e 43 60
e 43 67
e 43 68
e 43 74
e 43 78
e 43 79
e 43 82
e 43 92
e 43 103
e 43 107
e 43 112
e 43 117
e 43 124
e 43 130
e 43 131
e 43 141
e 43 146
e 43 151
e 43 152
e 43 154
e 43 157
e 43 160
e 44 46
e 44 51
e 44 57
e 44 58
e 44 60
e 44 76
e 44 78
e 44 79
e 44 80
e 44 82
e 44 87
e 44 90
e 44 92
e 44 96
e 44 97
e 44 115
e 44 117
e 44 124
e 44 126
e 44 146
e 44 149
e 44 150
e 44 153
e 44 156
e 45 50
e 45 51
e 45 55
e 45 59
e 45 66
e 45 69
e 45 77
e 45 84
e 45 88
e 45 89
e 45 92
e 45 102
e 45 104
e 45 111
e 45 113
e 45 115
e 45 125
e 45 136
e 45 157
e 45 159
e 46 49
e 46 51
e 46 77
e 46 79
e 46 83
e 46 88
e 46 91
e 46 93
e 46 96
e 46 101
e 46 106
e 46 117
e 46 118
e 46 124
e 46 129
e 46 131
e 46 140
e 46 145
e 46 148
e 46 149
e 47 54
e 47 59
e 47 62
e 47 66
e 47 72
e 47 74
e 47 75
e 47 78
e 47 80
e 47 92
e 47 93
e 47 96
e 47 98
e 47 106
e 47 121
e 47 150
e 47 153
e 47 155
e 48 63
e 48 69
e 48 70
e 48 71
e 48 74
e 48 76
e 48 84
e 48 86
e 48 94
e 48 96
e 48 101
e 48 115
e 48 122
e 48 126
e 48 131
e 48 134
e 48 141
e 48 145
e 48 154
e 49 56
e 49 69
e 49 81
e 49 82
e 49 90
e 49 92
e 49 98
e 49 104
e 49 107
e 49 116
e 49 119
e 49 121
e 49 128
e 49 132
e 49 140
e 49 158
e 50 57
e 50 60
e 50 67
e 50 74
e 50 87
e 50 89
e 50 94
e 50 104
e 50 107
e 50 112
e 50 119
e 50 148
e 50 156
e 50 159
e 51 69
e 51 70
e 51 72
e 51 75
e 51 76
e 51 77
e 51 78
e 51 80
e 51 82
e 51 88
e 51 90
e 51 92
e 51 93
e 51 95
e 51 102
e 51 104
e 51 107
e 51 113
e 51 114
e 51 117
e 51 131
e 51 133
e 51 140
e 51 141
e 51 142
e 51 144
e 51 147
e 51 154
e 51 155
e 51 156
e 52 59
e 52 60
e 52 62
e 52 67
e 52 69
e 52 71
e 52 76
e 52 84
e 52 85
e 52 90
e 52 91
e 52 94
e 52 101
e 52 108
e 52 117
e 52 121
e 52 127
e 52 129
e 52 130
e 52 140
e 52 145
e 52 153
e 52 154
e 53 57
e 53 59
e 53 65
e 53 81
e 53 83
e 53 86
e 53 92
e 53 93
e 53 95
e 53 99
e 53 100
e 53 102
e 53 104
e 53 116
e 53 118
e 53 126
e 53 130
e 53 136
e 53 137
e 53 143
e 53 144
e 53 152
e 53 153
e 53 154
e 53 155
e 54 57
e 54 58
e 54 59
e 54 64
e 54 67
e 54 70
e 54 76
e 54 78
e 54 80
e 54 81
e 54 89
e 54 91
e 54 95
e 54 103
e 54 104
e 54 112
e 54 115
e 54 117
e 54 119
e 54 120
e 54 125
e 54 127
e 54 136
e 54 144
e 54 149
e 54 151
e 55 56
e 55 61
e 55 68
e 55 76
e 55 77
e 55 81
e 55 82
e 55 84
e 55 93
e 55 95
e 55 97
e 55 104
e 55 109
e 55 111
e 55 116
e 55 120
e 55 131
e 55 137
e 55 142
e 55 152
e 55 154
e 55 158
e 55 160
e 56 57
e 56 65
e 56 70
e 56 77
e 56 83
e 56 86
e 56 88
e 56 101
e 56 102
e 56 109
e 56 113
e 56 118
e 56 121
e 56 126
e 56 132
e 56 139
e 56 144
e 56 149
e 56 150
e 56 153
e 56 154
e 56 159
e 57 61
e 57 66
e 57 72
e 57 75
e 57 80
e 57 84
e 57 85
e 57 89
e 57 92
e 57 102
e 57 111
e 57 115
e 57 131
e 57 136
e 57 137
e 57 141
e 57 145
e 57 149
e 57 156
e 57 157
e 57 158
e 57 159
e 58 59
e 58 60
e 58 65
e 58 68
e 58 71
e 58 73
e 58 96
e 58 99
e 58 115
e 58 118
e 58 122
e 58 124
e 58 132
e 58 134
e 58 137
e 58 138
e 58 146
e 58 153
e 58 155
e 58 160
e 59 60
e 59 65
e 59 66
e 59 72
e 59 73
e 59 76
e 59 77
e 59 79
e 59 89
e 59 92
e 59 97
e 59 100
e 59 102
e 59 110
e 59 111
e 59 112
e 59 116
e 59 118
e 59 124
e 59 128
e 59 131
e 59 147
e 59 149
e 59 152
e 59 156
e 60 62
e 60 68
e 60 69
e 60 78
e 60 81
e 60 87
e 60 88
e 60 92
e 60 100
e 60 105
e 60 106
e 60 107
e 60 110
e 60 114
e 60 117
e 60 138
e 60 154
e 60 159
e 61 69
e 61 73
e 61 74
e 61 76
e 61 80
e 61 87
e 61 94
e 61 95
e 61 96
e 61 99
e 61 101
e 61 103
e 61 112
e 61 122
e 61 128
e 61 129
e 61 134
e 61 135
e 61 136
e 61 140
e 61 146
e 62 63
e 62 66
e 62 72
e 62 73
e 62 75
e 62 76
e 62 78
e 62 83
e 62 95
e 62 103
e 62 111
e 62 127
e 62 132
e 62 138
e 62 139
e 62 143
e 62 147
e 62 148
e 63 80
e 63 83
e 63 84
e 63 94
e 63 96
e 63 99
e 63 109
e 63 112
e 63 115
e 63 117
e 63 119
e 63 122
e 63 127
e 63 130
e 63 150
e 63 158
e 63 159
e 64 71
e 64 97
e 64 101
e 64 106
e 64 112
e 64 114
e 64 122
e 64 126
e 64 128
e 64 132
e 64 133
e 64 141
e 64 147
e 64 149
e 64 151
e 64 157
e 65 69
e 65 76
e 65 79
e 65 81
e 65 82
e 65 84
e 65 86
e 65 88
e 65 92
e 65 99
e 65 104
e 65 116
e 65 119
e 65 128
e 65 135
e 65 150
e 65 152
e 66 67
e 66 77
e 66 78
e 66 80
e 66 83
e 66 96
e 66 97
e 66 101
e 66 104
e 66 107
e 66 109
e 66 111
e 66 112
e 66 115
e 66 121
e 66 125
e 66 126
e 66 137
e 66 138
e 66 139
e 66 155
e 66 158
e 67 83
e 67 91
e 67 139
e 67 143
e 67 149
e 67 152
e 67 159
e 68 76
e 68 80
e 68 81
e 68 82
e 68 83
e 68 87
e 68 92
e 68 97
e 68 98
e 68 117
e 68 128
e 68 129
e 68 139
e 68 141
e 68 142
e 68 147
e 68 156
e 69 70
e 69 78
e 69 80
e 69 83
e 69 84
e 69 87
e 69 88
e 69 97
e 69 106
e 69 116
e 69 125
e 69 131
e 69 135
e 69 141
e 69 142
e 69 153
e 70 79
e 70 85
e 70 86
e 70 87
e 70 89
e 70 104
e 70 105
e 70 112
e 70 113
e 70 120
e 70 123
e 70 134
e 70 146
e 70 150
e 70 159
e 70 160
e 71 89
e 71 95
e 71 96
e 71 100
e 71 101
e 71 104
e 71 106
e 71 119
e 71 122
e 71 129
e 71 131
e 71 132
e 71 139
e 71 145
e 71 151
e 71 153
e 71 154
e 72 75
e 72 98
e 72 100
e 72 101
e 72 108
e 72 123
e 72 124
e 72 130
e 72 134
e 72 138
e 72 139
e 72 150
e 72 155
e 72 158
e 73 83
e 73 89
e 73 91
e 73 93
e 73 101
e 73 110
e 73 131
e 73 134
e 73 135
e 73 140
e 73 150
e 73 155
e 74 75
e 74 79
e 74 80
e 74 82
e 74 83
e 74 84
e 74 86
e 74 87
e 74 89
e 74 95
e 74 101
e 74 105
e 74 108
e 74 120
e 74 127
e 74 135
e 74 141
e 74 143
e 74 147
e 74 148
e 74 151
e 74 154
e 74 156
e 75 77
e 75 90
e 75 91
e 75 93
e 75 94
e 75 99
e 75 115
e 75 116
e 75 123
e 75 126
e 75 127
e 75 131
e 75 133
e 75 137
e 75 138
e 75 142
e 75 144
e 75 151
e 75 158
e 76 80
e 76 83
e 76 89
e 76 96
e 76 103
e 76 123
e 76 124
e 76 130
e 76 131
e 76 134
e 76 135
e 76 136
e 76 146
e 76 150
e 77 91
e 77 93
e 77 104
e 77 106
e 77 115
e 77 119
e 77 120
e 77 124
e 77 126
e 77 128
e 77 137
e 77 142
e 77 143
e 77 144
e 77 147
e 77 160
e 78 89
e 78 95
e 78 98
e 78 103
e 78 118
e 78 121
e 78 123
e 78 129
e 78 131
e 78 141
e 78 143
e 78 154
e 79 95
e 79 96
e 79 105
e 79 106
e 79 115
e 79 129
e 79 131
e 79 134
e 79 141
e 79 144
e 79 145
e 79 149
e 79 153
e 79 155
e 79 160
e 80 90
e 80 92
e 80 93
e 80 100
e 80 106
e 80 116
e 80 126
e 80 127
e 80 133
e 80 148
e 81 98
e 81 100
e 81 102
e 81 104
e 81 113
e 81 115
e 81 116
e 81 122
e 81 132
e 81 133
e 81 135
e 81 145
e 81 154
e 81 155
e 82 84
e 82 88
e 82 94
e 82 99
e 82 107
e 82 110
e 82 116
e 82 117
e 82 118
e 82 119
e 82 121
e 82 127
e 82 130
e 82 132
e 82 134
e 82 149
e 82 150
e 82 153
e 82 157
e 83 103
e 83 106
e 83 116
e 83 120
e 83 123
e 83 126
e 83 128
e 83 132
e 83 140
e 83 142
e 83 144
e 83 147
e 83 149
e 83 151
e 83 159
e 83 160
e 84 85
e 84 90
e 84 92
e 84 94
e 84 98
e 84 103
e 84 104
e 84 105
e 84 107
e 84 114
e 84 115
e 84 117
e 84 122
e 84 135
e 84 143
e 84 144
e 85 88
e 85 90
e 85 100
e 85 105
e 85 108
e 85 111
e 85 112
e 85 115
e 85 121
e 85 122
e 85 123
e 85 124
e 85 127
e 85 128
e 85 131
e 85 145
e 85 158
e 85 159
e 86 92
e 86 93
e 86 94
e 86 97
e 86 99
e 86 121
e 86 125
e 86 126
e 86 127
e 86 135
e 86 150
e 86 151
e 86 153
e 86 154
e 86 155
e 86 159
e 87 88
e 87 89
e 87 90
e 87 98
e 87 101
e 87 105
e 87 119
e 87 121
e 87 122
e 87 124
e 87 129
e 87 141
e 87 152
e 87 157
e 87 158
e 88 95
e 88 96
e 88 100
e 88 106
e 88 108
e 88 113
e 88 115
e 88 120
e 88 131
e 88 143
e 88 149
e 88 158
e 88 159
e 88 160
e 89 97
e 89 99
e 89 103
e 89 105
e 89 106
e 89 110
e 89 121
e 89 126
e 89 129
e 89 138
e 89 144
e 89 150
e 89 156
e 90 119
e 90 121
e 90 124
e 90 130
e 90 137
e 90 140
e 90 152
e 90 156
e 90 159
e 91 96
e 91 100
e 91 103
e 91 109
e 91 111
e 91 116
e 91 118
e 91 128
e 91 130
e 91 135
e 91 150
e 91 154
e 91 155
e 91 157
e 91 158
e 92 94
e 92 98
e 92 100
e 92 101
e 92 103
e 92 104
e 92 106
e 92 107
e 92 109
e 92 115
e 92 122
e 92 126
e 92 128
e 92 133
e 92 149
e 92 151
e 92 157
e 92 158
e 93 101
e 93 116
e 93 121
e 93 123
e 93 140
e 93 141
e 93 149
e 93 155
e 93 156
e 94 95
e 94 99
e 94 103
e 94 105
e 94 123
e 94 126
e 94 128
e 94 130
e 94 137
e 94 140
e 94 141
e 94 148
e 94 152
e 94 153
e 94 159
e 95 96
e 95 100
e 95 105
e 95 110
e 95 121
e 95 125
e 95 126
e 95 132
e 95 134
e 95 137
e 95 142
e 95 143
e 95 146
e 95 160
e 96 100
e 96 107
e 96 109
e 96 113
e 96 119
e 96 123
e 96 125
e 96 141
e 96 145
e 96 150
e 96 154
e 96 157
e 97 100
e 97 101
e 97 102
e 97 106
e 97 109
e 97 112
e 97 113
e 97 114
e 97 121
e 97 124
e 97 126
e 97 130
e 97 145
e 97 147
e 97 148
e 97 149
e 97 156
e 97 158
e 98 107
e 98 112
e 98 119
e 98 126
e 98 131
e 98 132
e 98 133
e 98 135
e 98 138
e 98 142
e 98 159
e 99 101
e 99 106
e 99 113
e 99 126
e 99 131
e 99 132
e 99 133
e 99 138
e 99 145
e 99 158
e 99 159
e 100 105
e 100 106
e 100 109
e 100 117
e 100 129
e 100 130
e 100 132
e 100 135
e 100 141
e 100 152
e 100 158
e 100 160
e 101 108
e 101 115
e 101 119
e 101 123
e 101 124
e 101 126
e 101 139
e 101 142
e 101 148
e 101 156
e 101 159
e 102 103
e 102 109
e 102 111
e 102 113
e 102 117
e 102 118
e 102 120
e 102 121
e 102 127
e 102 128
e 102 136
e 102 139
e 102 142
e 102 145
e 102 160
e 103 108
e 103 117
e 103 119
e 103 126
e 103 132
e 103 136
e 103 137
e 103 144
e 103 146
e 103 151
e 104 120
e 104 124
e 104 125
e 104 134
e 104 143
e 104 145
e 104 155
e 104 160
e 105 115
e 105 116
e 105 121
e 105 122
e 105 123
e 105 129
e 105 130
e 105 138
e 105 139
e 105 149
e 105 153
e 105 154
e 105 157
e 106 121
e 106 124
e 106 128
e 106 134
e 106 135
e 106 153
e 106 158
e 107 110
e 107 113
e 107 126
e 107 127
e 107 133
e 107 134
e 107 137
e 107 138
e 107 142
e 107 149
e 107 152
e 107 153
e 107 158
e 107 159
e 107 160
e 108 111
e 108 112
e 108 118
e 108 127
e 108 129
e 108 138
e 108 143
e 108 146
e 108 147
e 108 151
e 108 152
e 108 155
e 109 110
e 109 124
e 109 129
e 109 133
e 109 134
e 109 137
e 109 138
e 109 142
e 109 145
e 109 152
e 109 153
e 109 159
e 109 160
e 110 111
e 110 125
e 110 127
e 110 142
e 110 150
e 110 152
e 110 153
e 110 155
e 111 113
e 111 114
e 111 119
e 111 122
e 111 138
e 111 139
e 112 116
e 112 117
e 112 127
e 112 128
e 112 129
e 112 131
e 112 136
e 112 137
e 112 142
e 112 143
e 112 144
e 112 146
e 112 150
e 112 156
e 112 159
e 113 115
e 113 118
e 113 119
e 113 120
e 113 122
e 113 129
e 113 132
e 113 137
e 113 138
e 113 143
e 113 145
e 113 147
e 113 150
e 113 151
e 113 154
e 113 155
e 114 119
e 114 123
e 114 128
e 114 139
e 114 150
e 114 154
e 115 121
e 115 126
e 115 135
e 115 136
e 115 138
e 115 139
e 115 141
e 115 142
e 115 145
e 115 146
e 115 152
e 115 153
e 115 158
e 115 160
e 116 118
e 116 123
e 116 124
e 116 133
e 116 140
e 116 142
e 116 143
e 116 145
e 116 146
e 116 148
e 116 152
e 117 118
e 117 119
e 117 126
e 117 130
e 117 131
e 117 136
e 117 137
e 117 138
e 117 153
e 117 155
e 117 159
e 117 160
e 118 121
e 118 124
e 118 129
e 118 134
e 118 136
e 118 143
e 118 144
e 118 154
e 118 158
e 119 124
e 119 126
e 119 148
e 119 150
e 119 153
e 119 156
e 120 122
e 120 124
e 120 125
e 120 143
e 120 147
e 120 155
e 120 157
e 120 160
e 121 128
e 121 134
e 121 135
e 121 136
e 121 144
e 121 149
e 121 156
e 121 158
e 122 123
e 122 132
e 122 139
e 122 144
e 122 145
e 122 153
e 122 159
e 123 124
e 123 131
e 123 132
e 123 140
e 123 144
e 123 148
e 123 151
e 124 127
e 124 131
e 124 137
e 124 144
e 124 147
e 124 149
e 124 150
e 124 153
e 124 154
e 125 130
e 125 131
e 125 135
e 125 144
e 125 147
e 125 151
e 125 154
e 125 158
e 126 128
e 126 134
e 126 135
e 126 136
e 126 139
e 126 144
e 127 129
e 127 130
e 127 131
e 127 132
e 127 133
e 127 134
e 127 139
e 127 141
e 127 142
e 127 148
e 128 131
e 128 145
e 128 148
e 128 154
e 128 155
e 128 158
e 129 133
e 129 134
e 129 135
e 129 140
e 129 144
e 129 146
e 129 158
e 129 160
e 130 134
e 130 139
e 130 148
e 130 150
e 130 155
e 131 134
e 131 141
e 131 145
e 131 149
e 131 153
e 131 159
e 132 135
e 132 149
e 133 134
e 133 145
e 133 149
e 133 150
e 133 153
e 133 155
e 134 145
e 134 146
e 134 152
e 134 153
e 134 159
e 135 147
e 135 155
e 135 156
e 135 158
e 135 159
e 135 160
e 136 141
e 136 150
e 136 156
e 136 157
e 136 160
e 137 140
e 137 141
e 137 146
e 137 147
e 137 152
e 137 159
e 137 160
e 138 144
e 138 152
e 138 157
e 138 158
e 138 160
e 139 147
e 139 152
e 139 158
e 140 147
e 141 142
e 141 147
e 141 149
e 141 154
e 143 146
e 143 147
e 143 148
e 143 149
e 143 151
e 144 146
e 144 149
e 144 159
e 145 154
e 145 157
e 145 159
e 146 149
e 146 156
e 146 157
e 146 160
e 147 150
e 148 149
e 148 151
e 148 156
e 148 159
e 149 154
e 150 153
e 150 157
e 151 155
e 156 157
e 157 160
e 158 159
